
Gurobi 12.0.0 (win64) logging started Wed May 14 10:01:46 2025

Set parameter LogFile to value "GateAssignment_RevenueMax.log"
Set parameter TimeLimit to value 600
Gurobi Optimizer version 12.0.0 build v12.0.0rc1 (win64 - Windows 11.0 (26100.2))

CPU model: Intel(R) Core(TM) i7-10750H CPU @ 2.60GHz, instruction set [SSE2|AVX|AVX2]
Thread count: 6 physical cores, 12 logical processors, using up to 12 threads

Non-default parameters:
TimeLimit  600

Optimize a model with 2653 rows, 685 columns and 6143 nonzeros
Model fingerprint: 0xe64c229d
Variable types: 10 continuous, 675 integer (675 binary)
Coefficient statistics:
  Matrix range     [1e+00, 1e+06]
  Objective range  [8e+00, 3e+03]
  Bounds range     [1e+00, 1e+00]
  RHS range        [1e+00, 2e+06]
Presolve removed 2575 rows and 640 columns
Presolve time: 0.01s
Presolved: 78 rows, 45 columns, 162 nonzeros
Variable types: 0 continuous, 45 integer (45 binary)
Found heuristic solution: objective 1829.4000000

Root relaxation: objective 2.825400e+03, 45 iterations, 0.00 seconds (0.00 work units)

    Nodes    |    Current Node    |     Objective Bounds      |     Work
 Expl Unexpl |  Obj  Depth IntInf | Incumbent    BestBd   Gap | It/Node Time

     0     0 2825.40000    0   45 1829.40000 2825.40000  54.4%     -    0s
     0     0     cutoff    0      1829.40000 1829.40000  0.00%     -    0s

Explored 1 nodes (70 simplex iterations) in 0.04 seconds (0.01 work units)
Thread count was 12 (of 12 available processors)

Solution count 1: 1829.4 

Optimal solution found (tolerance 1.00e-04)
Best objective 1.829400000000e+03, best bound 1.829400000000e+03, gap 0.0000%

Gurobi 12.0.0 (win64) logging started Wed May 14 10:21:32 2025

Set parameter LogFile to value "GateAssignment_RevenueMax.log"
Set parameter TimeLimit to value 600
Gurobi Optimizer version 12.0.0 build v12.0.0rc1 (win64 - Windows 11.0 (26100.2))

CPU model: Intel(R) Core(TM) i7-10750H CPU @ 2.60GHz, instruction set [SSE2|AVX|AVX2]
Thread count: 6 physical cores, 12 logical processors, using up to 12 threads

Non-default parameters:
TimeLimit  600

Optimize a model with 2653 rows, 685 columns and 6143 nonzeros
Model fingerprint: 0xe64c229d
Variable types: 10 continuous, 675 integer (675 binary)
Coefficient statistics:
  Matrix range     [1e+00, 1e+06]
  Objective range  [8e+00, 3e+03]
  Bounds range     [1e+00, 1e+00]
  RHS range        [1e+00, 2e+06]
Presolve removed 2575 rows and 640 columns
Presolve time: 0.00s
Presolved: 78 rows, 45 columns, 162 nonzeros
Variable types: 0 continuous, 45 integer (45 binary)
Found heuristic solution: objective 1829.4000000

Root relaxation: objective 2.825400e+03, 45 iterations, 0.00 seconds (0.00 work units)

    Nodes    |    Current Node    |     Objective Bounds      |     Work
 Expl Unexpl |  Obj  Depth IntInf | Incumbent    BestBd   Gap | It/Node Time

     0     0 2825.40000    0   45 1829.40000 2825.40000  54.4%     -    0s
     0     0     cutoff    0      1829.40000 1829.40000  0.00%     -    0s

Explored 1 nodes (70 simplex iterations) in 0.03 seconds (0.01 work units)
Thread count was 12 (of 12 available processors)

Solution count 1: 1829.4 

Optimal solution found (tolerance 1.00e-04)
Best objective 1.829400000000e+03, best bound 1.829400000000e+03, gap 0.0000%

Gurobi 12.0.0 (win64) logging started Mon May 19 10:23:23 2025

Set parameter LogFile to value "GateAssignment_RevenueMax.log"
Set parameter TimeLimit to value 600
Gurobi Optimizer version 12.0.0 build v12.0.0rc1 (win64 - Windows 11.0 (26100.2))

CPU model: Intel(R) Core(TM) i7-10750H CPU @ 2.60GHz, instruction set [SSE2|AVX|AVX2]
Thread count: 6 physical cores, 12 logical processors, using up to 12 threads

Non-default parameters:
TimeLimit  600

Optimize a model with 2653 rows, 685 columns and 6543 nonzeros
Model fingerprint: 0xf3952868
Variable types: 10 continuous, 675 integer (675 binary)
Coefficient statistics:
  Matrix range     [1e+00, 1e+06]
  Objective range  [8e+00, 3e+03]
  Bounds range     [1e+00, 1e+00]
  RHS range        [1e+00, 2e+06]
Presolve removed 2575 rows and 640 columns
Presolve time: 0.02s
Presolved: 78 rows, 45 columns, 162 nonzeros
Variable types: 0 continuous, 45 integer (45 binary)
Found heuristic solution: objective 1829.4000000

Root relaxation: objective 2.825400e+03, 45 iterations, 0.00 seconds (0.00 work units)

    Nodes    |    Current Node    |     Objective Bounds      |     Work
 Expl Unexpl |  Obj  Depth IntInf | Incumbent    BestBd   Gap | It/Node Time

     0     0 2825.40000    0   45 1829.40000 2825.40000  54.4%     -    0s
     0     0     cutoff    0      1829.40000 1829.40000  0.00%     -    0s

Explored 1 nodes (70 simplex iterations) in 0.06 seconds (0.01 work units)
Thread count was 12 (of 12 available processors)

Solution count 1: 1829.4 

Optimal solution found (tolerance 1.00e-04)
Best objective 1.829400000000e+03, best bound 1.829400000000e+03, gap 0.0000%

Gurobi 12.0.0 (win64) logging started Mon May 19 10:26:04 2025

Set parameter LogFile to value "GateAssignment_RevenueMax.log"
Set parameter TimeLimit to value 600
Gurobi Optimizer version 12.0.0 build v12.0.0rc1 (win64 - Windows 11.0 (26100.2))

CPU model: Intel(R) Core(TM) i7-10750H CPU @ 2.60GHz, instruction set [SSE2|AVX|AVX2]
Thread count: 6 physical cores, 12 logical processors, using up to 12 threads

Non-default parameters:
TimeLimit  600

Optimize a model with 2653 rows, 685 columns and 6543 nonzeros
Model fingerprint: 0xb1168e56
Variable types: 10 continuous, 675 integer (675 binary)
Coefficient statistics:
  Matrix range     [1e+00, 1e+06]
  Objective range  [8e+00, 3e+03]
  Bounds range     [1e+00, 1e+00]
  RHS range        [1e+00, 2e+06]
Presolve removed 50 rows and 150 columns
Presolve time: 0.00s

Explored 0 nodes (0 simplex iterations) in 0.00 seconds (0.00 work units)
Thread count was 1 (of 12 available processors)

Solution count 0
No other solutions better than -1e+100

Model is infeasible
Best objective -, best bound -, gap -

Gurobi 12.0.0 (win64) logging started Mon May 19 10:26:21 2025

Set parameter LogFile to value "GateAssignment_RevenueMax.log"
Set parameter TimeLimit to value 600
Gurobi Optimizer version 12.0.0 build v12.0.0rc1 (win64 - Windows 11.0 (26100.2))

CPU model: Intel(R) Core(TM) i7-10750H CPU @ 2.60GHz, instruction set [SSE2|AVX|AVX2]
Thread count: 6 physical cores, 12 logical processors, using up to 12 threads

Non-default parameters:
TimeLimit  600

Optimize a model with 2653 rows, 685 columns and 6543 nonzeros
Model fingerprint: 0x4fcd7456
Variable types: 10 continuous, 675 integer (675 binary)
Coefficient statistics:
  Matrix range     [1e+00, 1e+06]
  Objective range  [8e+00, 3e+03]
  Bounds range     [1e+00, 1e+00]
  RHS range        [1e+00, 2e+06]
Presolve removed 2575 rows and 640 columns
Presolve time: 0.00s
Presolved: 78 rows, 45 columns, 162 nonzeros
Variable types: 0 continuous, 45 integer (45 binary)
Found heuristic solution: objective 1829.4000000

Root relaxation: objective 2.825400e+03, 45 iterations, 0.00 seconds (0.00 work units)

    Nodes    |    Current Node    |     Objective Bounds      |     Work
 Expl Unexpl |  Obj  Depth IntInf | Incumbent    BestBd   Gap | It/Node Time

     0     0 2825.40000    0   45 1829.40000 2825.40000  54.4%     -    0s
     0     0     cutoff    0      1829.40000 1829.40000  0.00%     -    0s

Explored 1 nodes (70 simplex iterations) in 0.03 seconds (0.01 work units)
Thread count was 12 (of 12 available processors)

Solution count 1: 1829.4 

Optimal solution found (tolerance 1.00e-04)
Best objective 1.829400000000e+03, best bound 1.829400000000e+03, gap 0.0000%

Gurobi 12.0.0 (win64) logging started Mon May 19 10:36:20 2025

Set parameter LogFile to value "GateAssignment_RevenueMax.log"
Set parameter TimeLimit to value 600
Gurobi Optimizer version 12.0.0 build v12.0.0rc1 (win64 - Windows 11.0 (26100.2))

CPU model: Intel(R) Core(TM) i7-10750H CPU @ 2.60GHz, instruction set [SSE2|AVX|AVX2]
Thread count: 6 physical cores, 12 logical processors, using up to 12 threads

Non-default parameters:
TimeLimit  600

Optimize a model with 1658129 rows, 528330 columns and 3922784 nonzeros
Model fingerprint: 0xc2a7147c
Variable types: 44 continuous, 528286 integer (528286 binary)
Coefficient statistics:
  Matrix range     [1e+00, 1e+06]
  Objective range  [1e+00, 4e+03]
  Bounds range     [1e+00, 1e+00]
  RHS range        [1e+00, 2e+06]
Presolve removed 1437 rows and 0 columns
Presolve time: 0.29s

Explored 0 nodes (0 simplex iterations) in 0.72 seconds (0.94 work units)
Thread count was 1 (of 12 available processors)

Solution count 0
No other solutions better than -1e+100

Model is infeasible
Best objective -, best bound -, gap -

Gurobi 12.0.0 (win64) logging started Mon May 19 10:38:33 2025

Set parameter LogFile to value "GateAssignment_RevenueMax.log"
Set parameter TimeLimit to value 600
Gurobi Optimizer version 12.0.0 build v12.0.0rc1 (win64 - Windows 11.0 (26100.2))

CPU model: Intel(R) Core(TM) i7-10750H CPU @ 2.60GHz, instruction set [SSE2|AVX|AVX2]
Thread count: 6 physical cores, 12 logical processors, using up to 12 threads

Non-default parameters:
TimeLimit  600

Optimize a model with 1658129 rows, 528330 columns and 3922784 nonzeros
Model fingerprint: 0xc2a7147c
Variable types: 44 continuous, 528286 integer (528286 binary)
Coefficient statistics:
  Matrix range     [1e+00, 1e+06]
  Objective range  [1e+00, 4e+03]
  Bounds range     [1e+00, 1e+00]
  RHS range        [1e+00, 2e+06]
Presolve removed 1437 rows and 0 columns
Presolve time: 0.31s

Explored 0 nodes (0 simplex iterations) in 0.77 seconds (0.94 work units)
Thread count was 1 (of 12 available processors)

Solution count 0
No other solutions better than -1e+100

Model is infeasible
Best objective -, best bound -, gap -

Gurobi 12.0.0 (win64) logging started Mon May 19 10:39:35 2025

Set parameter LogFile to value "GateAssignment_RevenueMax.log"
Set parameter TimeLimit to value 600
Gurobi Optimizer version 12.0.0 build v12.0.0rc1 (win64 - Windows 11.0 (26100.2))

CPU model: Intel(R) Core(TM) i7-10750H CPU @ 2.60GHz, instruction set [SSE2|AVX|AVX2]
Thread count: 6 physical cores, 12 logical processors, using up to 12 threads

Non-default parameters:
TimeLimit  600

Optimize a model with 2653 rows, 685 columns and 6543 nonzeros
Model fingerprint: 0x4fcd7456
Variable types: 10 continuous, 675 integer (675 binary)
Coefficient statistics:
  Matrix range     [1e+00, 1e+06]
  Objective range  [8e+00, 3e+03]
  Bounds range     [1e+00, 1e+00]
  RHS range        [1e+00, 2e+06]
Presolve removed 2575 rows and 640 columns
Presolve time: 0.00s
Presolved: 78 rows, 45 columns, 162 nonzeros
Variable types: 0 continuous, 45 integer (45 binary)
Found heuristic solution: objective 1829.4000000

Root relaxation: objective 2.825400e+03, 45 iterations, 0.00 seconds (0.00 work units)

    Nodes    |    Current Node    |     Objective Bounds      |     Work
 Expl Unexpl |  Obj  Depth IntInf | Incumbent    BestBd   Gap | It/Node Time

     0     0 2825.40000    0   45 1829.40000 2825.40000  54.4%     -    0s
     0     0     cutoff    0      1829.40000 1829.40000  0.00%     -    0s

Explored 1 nodes (70 simplex iterations) in 0.02 seconds (0.01 work units)
Thread count was 12 (of 12 available processors)

Solution count 1: 1829.4 

Optimal solution found (tolerance 1.00e-04)
Best objective 1.829400000000e+03, best bound 1.829400000000e+03, gap 0.0000%

Gurobi 12.0.0 (win64) logging started Mon May 19 10:41:49 2025

Set parameter LogFile to value "GateAssignment_RevenueMax.log"
Set parameter TimeLimit to value 600
Gurobi Optimizer version 12.0.0 build v12.0.0rc1 (win64 - Windows 11.0 (26100.2))

CPU model: Intel(R) Core(TM) i7-10750H CPU @ 2.60GHz, instruction set [SSE2|AVX|AVX2]
Thread count: 6 physical cores, 12 logical processors, using up to 12 threads

Non-default parameters:
TimeLimit  600

Optimize a model with 1657403 rows, 528330 columns and 3922058 nonzeros
Model fingerprint: 0x63656742
Variable types: 44 continuous, 528286 integer (528286 binary)
Coefficient statistics:
  Matrix range     [1e+00, 1e+06]
  Objective range  [1e+00, 4e+03]
  Bounds range     [1e+00, 1e+00]
  RHS range        [1e+00, 2e+06]
Presolve removed 1170104 rows and 371043 columns (presolve time = 5s)...
Presolve removed 1210338 rows and 379132 columns (presolve time = 10s)...
Presolve removed 1210338 rows and 379132 columns (presolve time = 15s)...
Presolve removed 1380961 rows and 435883 columns
Presolve time: 17.83s
Presolved: 276442 rows, 92447 columns, 646194 nonzeros
Variable types: 0 continuous, 92447 integer (92403 binary)
Found heuristic solution: objective 24338.050000
Found heuristic solution: objective 24676.790000
Performing another presolve...
Presolve removed 151 rows and 0 columns (presolve time = 5s)...
Presolve removed 236181 rows and 72757 columns
Presolve time: 8.27s
Performing another presolve...
Presolve removed 4732 rows and 1682 columns
Presolve time: 2.62s

Root simplex log...

Iteration    Objective       Primal Inf.    Dual Inf.      Time
       0    1.3347435e+06   6.623567e+03   0.000000e+00     30s
   32922    7.1827190e+04   9.658143e+03   0.000000e+00     35s
   36974    7.1460878e+04   0.000000e+00   0.000000e+00     37s

Root relaxation: objective 7.146088e+04, 36974 iterations, 7.05 seconds (10.87 work units)
Total elapsed time = 37.13s (DegenMoves)

    Nodes    |    Current Node    |     Objective Bounds      |     Work
 Expl Unexpl |  Obj  Depth IntInf | Incumbent    BestBd   Gap | It/Node Time

     0     0 71460.8775    0 17859 24676.7900 71460.8775   190%     -   38s
H    0     0                    27329.070000 71460.8775   161%     -   38s
H    0     0                    30394.370000 71460.8775   135%     -   38s
H    0     0                    31890.480000 71460.8775   124%     -   38s
H    0     0                    32233.380000 71460.8775   122%     -   39s
H    0     0                    33855.450000 71460.8775   111%     -   39s
H    0     0                    34257.660000 71460.8775   109%     -   39s
H    0     0                    34637.620000 71460.8775   106%     -   39s
H    0     0                    35386.620000 71460.8775   102%     -   39s
H    0     0                    35423.580000 71460.8775   102%     -   40s
H    0     0                    35497.530000 71460.8750   101%     -   42s
     0     0 52268.0345    0 6703 35497.5300 52268.0345  47.2%     -   55s
H    0     0                    35585.050000 45570.8273  28.1%     -   61s
     0     0 45570.8273    0 3632 35585.0500 45570.8273  28.1%     -   64s
     0     0 44129.9778    0 3855 35585.0500 44129.9778  24.0%     -   71s
     0     0 43950.6802    0 3167 35585.0500 43950.6802  23.5%     -   76s
     0     0 43935.9382    0 3168 35585.0500 43935.9382  23.5%     -   79s
     0     0 43931.9047    0 3158 35585.0500 43931.9047  23.5%     -   82s
     0     0 37449.6140    0 1584 35585.0500 37449.6140  5.24%     -  104s
H    0     0                    35709.220000 37449.6008  4.87%     -  104s
     0     0 37206.7008    0 1055 35709.2200 37206.7008  4.19%     -  114s
     0     0 37180.5266    0 1116 35709.2200 37180.5266  4.12%     -  117s
     0     0 37178.9676    0 1146 35709.2200 37178.9676  4.12%     -  118s
     0     0 36625.5921    0  438 35709.2200 36625.5921  2.57%     -  127s
H    0     0                    35947.000000 36625.4871  1.89%     -  127s
     0     0 36609.6986    0  469 35947.0000 36609.6986  1.84%     -  131s
     0     0 36557.7357    0  318 35947.0000 36557.7357  1.70%     -  134s
     0     0 36557.7357    0 14072 35947.0000 36557.7357  1.70%     -  150s
     0     0 36557.7357    0 5952 35947.0000 36557.7357  1.70%     -  185s
     0     0 36557.7357    0 1525 35947.0000 36557.7357  1.70%     -  191s
     0     0 36557.7357    0  635 35947.0000 36557.7357  1.70%     -  198s
     0     0 36557.7357    0  327 35947.0000 36557.7357  1.70%     -  199s
     0     0 36556.8675    0  303 35947.0000 36556.8675  1.70%     -  199s
     0     0 36551.0644    0  391 35947.0000 36551.0644  1.68%     -  201s
H    0     0                    35969.200000 36550.9658  1.62%     -  201s
     0     0 36549.5218    0  250 35969.2000 36549.5218  1.61%     -  202s
     0     0 36527.5327    0  849 35969.2000 36527.5327  1.55%     -  208s
     0     0 36527.4835    0  840 35969.2000 36527.4835  1.55%     -  208s
H    0     0                    36121.200000 36527.4835  1.12%     -  211s
     0     0 36527.4835    0 9508 36121.2000 36527.4835  1.12%     -  224s
H    0     0                    36121.200102 36527.4835  1.12%     -  224s
     0     0 36527.4835    0 5198 36121.2001 36527.4835  1.12%     -  247s
     0     0 36527.4835    0 1238 36121.2001 36527.4835  1.12%     -  259s
     0     0 36527.4835    0  640 36121.2001 36527.4835  1.12%     -  265s
     0     0 36523.7000    0  656 36121.2001 36523.7000  1.11%     -  268s
     0     0 36521.1554    0  634 36121.2001 36521.1554  1.11%     -  269s
     0     0 36509.3667    0  236 36121.2001 36509.3667  1.07%     -  271s
     0     0 36506.9945    0  272 36121.2001 36506.9945  1.07%     -  271s
     0     0 36502.7025    0  384 36121.2001 36502.7025  1.06%     -  273s
     0     0 36502.6143    0  371 36121.2001 36502.6143  1.06%     -  274s
     0     2 36502.5733    0  361 36121.2001 36502.5733  1.06%     -  276s
    13    18 36340.0950    4  265 36121.2001 36377.8129  0.71%   913  280s
*   45    11               7    36138.960000 36329.1554  0.53%   427  281s

Cutting planes:
  Lift-and-project: 2
  Cover: 3
  Implied bound: 6
  Clique: 3
  MIR: 2
  Zero half: 7
  RLT: 1533
  BQP: 516

Explored 81 nodes (381398 simplex iterations) in 283.48 seconds (224.15 work units)
Thread count was 12 (of 12 available processors)

Solution count 10: 36139 36121.2 36121.2 ... 35386.6

Optimal solution found (tolerance 1.00e-04)
Best objective 3.613896000000e+04, best bound 3.613896000000e+04, gap 0.0000%

Gurobi 12.0.0 (win64) logging started Mon May 19 10:55:51 2025

Set parameter LogFile to value "GateAssignment_RevenueMax.log"
Set parameter TimeLimit to value 600
Gurobi Optimizer version 12.0.0 build v12.0.0rc1 (win64 - Windows 11.0 (26100.2))

CPU model: Intel(R) Core(TM) i7-10750H CPU @ 2.60GHz, instruction set [SSE2|AVX|AVX2]
Thread count: 6 physical cores, 12 logical processors, using up to 12 threads

Non-default parameters:
TimeLimit  600

Optimize a model with 1658135 rows, 528330 columns and 3922790 nonzeros
Model fingerprint: 0xf6393784
Variable types: 44 continuous, 528286 integer (528286 binary)
Coefficient statistics:
  Matrix range     [1e+00, 1e+06]
  Objective range  [1e+00, 4e+03]
  Bounds range     [1e+00, 1e+00]
  RHS range        [1e+00, 2e+06]
Presolve removed 1437 rows and 0 columns
Presolve time: 0.32s

Explored 0 nodes (0 simplex iterations) in 0.74 seconds (0.94 work units)
Thread count was 1 (of 12 available processors)

Solution count 0
No other solutions better than -1e+100

Model is infeasible
Best objective -, best bound -, gap -

Gurobi 12.0.0 (win64) logging started Mon May 19 11:06:14 2025

Set parameter LogFile to value "GateAssignment_RevenueMax.log"
Set parameter TimeLimit to value 600
Gurobi Optimizer version 12.0.0 build v12.0.0rc1 (win64 - Windows 11.0 (26100.2))

CPU model: Intel(R) Core(TM) i7-10750H CPU @ 2.60GHz, instruction set [SSE2|AVX|AVX2]
Thread count: 6 physical cores, 12 logical processors, using up to 12 threads

Non-default parameters:
TimeLimit  600

Optimize a model with 1658135 rows, 528330 columns and 3922790 nonzeros
Model fingerprint: 0xb89b6dff
Variable types: 44 continuous, 528286 integer (528286 binary)
Coefficient statistics:
  Matrix range     [1e+00, 1e+06]
  Objective range  [1e+00, 4e+03]
  Bounds range     [1e+00, 1e+00]
  RHS range        [1e+00, 2e+06]
Presolve removed 1445 rows and 0 columns
Presolve time: 0.32s

Explored 0 nodes (0 simplex iterations) in 0.73 seconds (0.93 work units)
Thread count was 1 (of 12 available processors)

Solution count 0
No other solutions better than -1e+100

Model is infeasible
Best objective -, best bound -, gap -

Gurobi 12.0.0 (win64) logging started Mon May 19 11:08:48 2025

Set parameter LogFile to value "GateAssignment_RevenueMax.log"
Set parameter TimeLimit to value 600
Gurobi Optimizer version 12.0.0 build v12.0.0rc1 (win64 - Windows 11.0 (26100.2))

CPU model: Intel(R) Core(TM) i7-10750H CPU @ 2.60GHz, instruction set [SSE2|AVX|AVX2]
Thread count: 6 physical cores, 12 logical processors, using up to 12 threads

Non-default parameters:
TimeLimit  600

Optimize a model with 1658135 rows, 528330 columns and 3922790 nonzeros
Model fingerprint: 0x0a6de5f3
Variable types: 44 continuous, 528286 integer (528286 binary)
Coefficient statistics:
  Matrix range     [1e+00, 1e+06]
  Objective range  [1e+00, 4e+03]
  Bounds range     [1e+00, 1e+00]
  RHS range        [1e+00, 2e+06]
Presolve removed 1444 rows and 0 columns
Presolve time: 0.29s

Explored 0 nodes (0 simplex iterations) in 0.70 seconds (0.94 work units)
Thread count was 1 (of 12 available processors)

Solution count 0
No other solutions better than -1e+100

Model is infeasible
Best objective -, best bound -, gap -

Gurobi 12.0.0 (win64) logging started Mon May 19 11:20:58 2025

Set parameter LogFile to value "GateAssignment_RevenueMax.log"
Set parameter TimeLimit to value 600
Gurobi Optimizer version 12.0.0 build v12.0.0rc1 (win64 - Windows 11.0 (26100.2))

CPU model: Intel(R) Core(TM) i7-10750H CPU @ 2.60GHz, instruction set [SSE2|AVX|AVX2]
Thread count: 6 physical cores, 12 logical processors, using up to 12 threads

Non-default parameters:
TimeLimit  600

Optimize a model with 1658135 rows, 528330 columns and 3922790 nonzeros
Model fingerprint: 0xc7411a3a
Variable types: 44 continuous, 528286 integer (528286 binary)
Coefficient statistics:
  Matrix range     [1e+00, 1e+06]
  Objective range  [1e+00, 4e+03]
  Bounds range     [1e+00, 1e+00]
  RHS range        [1e+00, 2e+06]
Presolve removed 387892 rows and 377 columns
Presolve time: 0.55s

Explored 0 nodes (0 simplex iterations) in 0.96 seconds (1.34 work units)
Thread count was 1 (of 12 available processors)

Solution count 0
No other solutions better than -1e+100

Model is infeasible
Best objective -, best bound -, gap -

Gurobi 12.0.0 (win64) logging started Mon May 19 11:38:33 2025

Set parameter LogFile to value "GateAssignment_RevenueMax.log"
Set parameter TimeLimit to value 600
Gurobi Optimizer version 12.0.0 build v12.0.0rc1 (win64 - Windows 11.0 (26100.2))

CPU model: Intel(R) Core(TM) i7-10750H CPU @ 2.60GHz, instruction set [SSE2|AVX|AVX2]
Thread count: 6 physical cores, 12 logical processors, using up to 12 threads

Non-default parameters:
TimeLimit  600

Optimize a model with 1658129 rows, 528330 columns and 3922784 nonzeros
Model fingerprint: 0xf02827e2
Variable types: 44 continuous, 528286 integer (528286 binary)
Coefficient statistics:
  Matrix range     [1e+00, 1e+06]
  Objective range  [1e+00, 4e+03]
  Bounds range     [1e+00, 1e+00]
  RHS range        [1e+00, 2e+06]
Presolve removed 1640005 rows and 521476 columns
Presolve time: 0.78s
Presolved: 18124 rows, 6854 columns, 40894 nonzeros
Variable types: 0 continuous, 6854 integer (6846 binary)
Found heuristic solution: objective 24955.140000
Found heuristic solution: objective 25133.880000
Found heuristic solution: objective 25521.270000
Performing another presolve...
Presolve removed 18112 rows and 6834 columns
Presolve time: 0.20s
Found heuristic solution: objective 27414.500000

Root relaxation: objective 2.755382e+04, 11 iterations, 0.00 seconds (0.00 work units)

    Nodes    |    Current Node    |     Objective Bounds      |     Work
 Expl Unexpl |  Obj  Depth IntInf | Incumbent    BestBd   Gap | It/Node Time

*    0     0               0    27553.820000 27553.8200  0.00%     -    1s

Explored 1 nodes (11 simplex iterations) in 1.60 seconds (2.01 work units)
Thread count was 12 (of 12 available processors)

Solution count 7: 27553.8 27414.5 26156.8 ... 24955.1

Optimal solution found (tolerance 1.00e-04)
Best objective 2.755382000000e+04, best bound 2.755382000000e+04, gap 0.0000%

Gurobi 12.0.0 (win64) logging started Mon May 19 11:41:51 2025

Set parameter LogFile to value "GateAssignment_RevenueMax.log"
Set parameter TimeLimit to value 600
Gurobi Optimizer version 12.0.0 build v12.0.0rc1 (win64 - Windows 11.0 (26100.2))

CPU model: Intel(R) Core(TM) i7-10750H CPU @ 2.60GHz, instruction set [SSE2|AVX|AVX2]
Thread count: 6 physical cores, 12 logical processors, using up to 12 threads

Non-default parameters:
TimeLimit  600

Optimize a model with 1658129 rows, 528330 columns and 3922784 nonzeros
Model fingerprint: 0x0bc61f65
Variable types: 44 continuous, 528286 integer (528286 binary)
Coefficient statistics:
  Matrix range     [1e+00, 1e+06]
  Objective range  [1e+00, 4e+03]
  Bounds range     [1e+00, 1e+00]
  RHS range        [1e+00, 2e+06]
Presolve removed 1591463 rows and 506717 columns
Presolve time: 0.85s
Presolved: 66666 rows, 21613 columns, 154074 nonzeros
Variable types: 0 continuous, 21613 integer (21599 binary)
Found heuristic solution: objective 22170.090000
Found heuristic solution: objective 26577.440000
Performing another presolve...
Presolve removed 64295 rows and 20389 columns
Presolve time: 0.95s
Performing another presolve...
Presolve removed 826 rows and 391 columns
Presolve time: 0.15s

Root relaxation: objective 3.247279e+04, 1315 iterations, 0.04 seconds (0.03 work units)

    Nodes    |    Current Node    |     Objective Bounds      |     Work
 Expl Unexpl |  Obj  Depth IntInf | Incumbent    BestBd   Gap | It/Node Time

     0     0 32472.7914    0  705 26577.4400 32472.7914  22.2%     -    2s
H    0     0                    27958.820000 32472.7914  16.1%     -    2s
H    0     0                    28575.160000 32472.7914  13.6%     -    2s
H    0     0                    28580.560000 32472.7914  13.6%     -    2s
H    0     0                    28846.740000 32472.7914  12.6%     -    3s
H    0     0                    28932.020000 32470.7740  12.2%     -    3s
H    0     0                    29108.140000 32470.7740  11.6%     -    3s
H    0     0                    29144.140000 29144.1400  0.00%     -    3s
     0     0          -    0      29144.1400 29144.1400  0.00%     -    3s

Cutting planes:
  Cover: 2
  Zero half: 1
  RLT: 431
  BQP: 644

Explored 1 nodes (2049 simplex iterations) in 3.26 seconds (3.36 work units)
Thread count was 12 (of 12 available processors)

Solution count 10: 29144.1 29108.1 28932 ... 22170.1

Optimal solution found (tolerance 1.00e-04)
Best objective 2.914414000000e+04, best bound 2.914414000000e+04, gap 0.0000%

Gurobi 12.0.0 (win64) logging started Thu May 22 14:20:36 2025

Set parameter LogFile to value "GateAssignment_RevenueMax.log"
Set parameter TimeLimit to value 600
Gurobi Optimizer version 12.0.0 build v12.0.0rc1 (win64 - Windows 11.0 (26100.2))

CPU model: Intel(R) Core(TM) i7-10850H CPU @ 2.70GHz, instruction set [SSE2|AVX|AVX2]
Thread count: 6 physical cores, 12 logical processors, using up to 12 threads

Non-default parameters:
TimeLimit  600

Optimize a model with 1658129 rows, 528330 columns and 3922784 nonzeros
Model fingerprint: 0x0bc61f65
Variable types: 44 continuous, 528286 integer (528286 binary)
Coefficient statistics:
  Matrix range     [1e+00, 1e+06]
  Objective range  [1e+00, 4e+03]
  Bounds range     [1e+00, 1e+00]
  RHS range        [1e+00, 2e+06]
Presolve removed 1591463 rows and 506717 columns
Presolve time: 1.60s
Presolved: 66666 rows, 21613 columns, 154074 nonzeros
Variable types: 0 continuous, 21613 integer (21599 binary)
Found heuristic solution: objective 22170.090000
Found heuristic solution: objective 26577.440000
Performing another presolve...
Presolve removed 64295 rows and 20389 columns
Presolve time: 0.98s
Performing another presolve...
Presolve removed 826 rows and 391 columns
Presolve time: 0.14s

Root relaxation: objective 3.247279e+04, 1315 iterations, 0.03 seconds (0.03 work units)

    Nodes    |    Current Node    |     Objective Bounds      |     Work
 Expl Unexpl |  Obj  Depth IntInf | Incumbent    BestBd   Gap | It/Node Time

     0     0 32472.7914    0  705 26577.4400 32472.7914  22.2%     -    4s
H    0     0                    27958.820000 32472.7914  16.1%     -    4s
H    0     0                    28575.160000 32472.7914  13.6%     -    4s
H    0     0                    28580.560000 32472.7914  13.6%     -    4s
H    0     0                    28846.740000 32472.7914  12.6%     -    4s
H    0     0                    28932.020000 32470.7740  12.2%     -    4s
H    0     0                    29108.140000 32470.7740  11.6%     -    4s
H    0     0                    29144.140000 29144.1400  0.00%     -    4s
     0     0          -    0      29144.1400 29144.1400  0.00%     -    4s

Cutting planes:
  Cover: 2
  Zero half: 1
  RLT: 431
  BQP: 644

Explored 1 nodes (2049 simplex iterations) in 4.40 seconds (3.36 work units)
Thread count was 12 (of 12 available processors)

Solution count 10: 29144.1 29108.1 28932 ... 22170.1

Optimal solution found (tolerance 1.00e-04)
Best objective 2.914414000000e+04, best bound 2.914414000000e+04, gap 0.0000%
